/*********************************************
 * OPL 12.6.0.0 Data
 * Author: Adrian Rodriguez Bazaga, Pau Rodriguez Esmerats
 * Creation Date: 01/12/2017 at 09:09:15
 *********************************************/

nNurses=585;
maxConsec=2;
maxPresence=7;
maxHours=5;
minHours=1;
demand= [120 111 191 184 111 191 184 114 129 74 8 15 14 20 24 17 18 10 16 5 92 178 96 150  ];
